Cost: 407
0-22-28-36-35-29-11-0
0-17-44-15-37-12-0
0-27-1-32-46-0
0-18-13-14-0
0-38-9-34-30-5-0
0-6-23-7-26-31-0
Cost: 407
0-8-31-26-23-6-0
0-11-29-35-36-28-22-0
0-12-37-15-44-17-0
0-38-9-34-30-5-0
0-18-13-14-0
0-46-32-1-27-0
Cost: 407
0-22-28-36-35-29-11-0
0-17-44-15-37-12-0
0-27-1-32-46-0
0-18-13-14-0
0-38-9-34-30-5-0
0-6-23-7-26-31-0
Cost: 407
0-22-28-36-35-29-11-0
0-27-1-32-46-0
0-38-9-34-30-5-0
0-8-31-26-23-6-0
0-18-13-14-0
0-12-37-15-44-17-0
Cost: 407
0-11-29-35-36-28-22-0
0-5-30-34-9-38-0
0-12-37-15-44-17-0
0-14-13-18-0
0-8-31-26-23-6-0
0-46-32-1-27-0
Cost: 407
0-5-30-34-9-38-0
0-46-32-1-27-0
0-18-13-14-0
0-17-44-15-37-12-0
0-22-28-36-35-29-11-0
0-6-23-7-26-31-0
Cost: 407
0-12-37-15-44-17-0
0-22-28-36-35-29-11-0
0-18-13-14-0
0-27-1-32-46-0
0-5-30-34-9-38-0
0-8-31-26-23-6-0
Cost: 407
0-12-37-15-44-17-0
0-22-28-36-35-29-11-0
0-18-13-14-0
0-27-1-32-46-0
0-5-30-34-9-38-0
0-8-31-26-23-6-0
Cost: 407
0-12-37-15-44-17-0
0-22-28-36-35-29-11-0
0-18-13-14-0
0-27-1-32-46-0
0-5-30-34-9-38-0
0-8-31-26-23-6-0
Cost: 407
0-38-9-34-30-5-0
0-18-13-14-0
0-22-28-36-35-29-11-0
0-27-1-32-46-0
0-6-23-26-31-8-0
0-12-37-15-44-17-0
Cost: 407
0-8-31-26-23-6-0
0-11-29-35-36-28-22-0
0-18-13-14-0
0-46-32-1-27-0
0-12-37-15-44-17-0
0-5-30-34-9-38-0
Cost: 407
0-18-13-14-0
0-11-29-35-36-28-22-0
0-12-37-15-44-17-0
0-38-9-34-30-5-0
0-8-31-26-23-6-0
0-46-32-1-27-0
Cost: 407
0-18-13-14-0
0-11-29-35-36-28-22-0
0-12-37-15-44-17-0
0-38-9-34-30-5-0
0-8-31-26-23-6-0
0-46-32-1-27-0
Cost: 407
0-38-9-34-30-5-0
0-27-1-32-46-0
0-17-44-15-37-12-0
0-18-13-14-0
0-11-29-35-36-28-22-0
0-8-31-26-23-6-0
Cost: 407
0-18-13-14-0
0-11-29-35-36-28-22-0
0-12-37-15-44-17-0
0-38-9-34-30-5-0
0-8-31-26-23-6-0
0-46-32-1-27-0
Cost: 407
0-18-13-14-0
0-11-29-35-36-28-22-0
0-12-37-15-44-17-0
0-38-9-34-30-5-0
0-8-31-26-23-6-0
0-46-32-1-27-0
Cost: 407
0-18-13-14-0
0-11-29-35-36-28-22-0
0-12-37-15-44-17-0
0-38-9-34-30-5-0
0-8-31-26-23-6-0
0-46-32-1-27-0
Cost: 407
0-27-1-32-46-0
0-38-9-34-30-5-0
0-22-28-36-35-29-11-0
0-18-13-14-0
0-17-44-15-37-12-0
0-6-23-26-31-8-0
Cost: 407
0-17-44-15-37-12-0
0-18-13-14-0
0-5-30-34-9-38-0
0-11-29-35-36-28-22-0
0-8-31-26-23-6-0
0-27-1-32-46-0
Cost: 407
0-17-44-15-37-12-0
0-18-13-14-0
0-5-30-34-9-38-0
0-11-29-35-36-28-22-0
0-8-31-26-23-6-0
0-27-1-32-46-0
Cost: 407
0-14-13-18-0
0-8-31-26-23-6-0
0-17-44-15-37-12-0
0-22-28-36-35-29-11-0
0-5-30-34-9-38-0
0-46-32-1-27-0
Cost: 407
0-14-13-18-0
0-8-31-26-23-6-0
0-17-44-15-37-12-0
0-22-28-36-35-29-11-0
0-5-30-34-9-38-0
0-46-32-1-27-0
Cost: 407
0-22-28-36-35-29-11-0
0-17-44-15-37-12-0
0-6-23-26-31-8-0
0-14-13-18-0
0-46-32-1-27-0
0-5-30-34-9-38-0
Cost: 407
0-14-13-18-0
0-8-31-26-23-6-0
0-17-44-15-37-12-0
0-22-28-36-35-29-11-0
0-5-30-34-9-38-0
0-46-32-1-27-0
Cost: 407
0-27-1-32-46-0
0-38-9-34-30-5-0
0-22-28-36-35-29-11-0
0-18-13-14-0
0-17-44-15-37-12-0
0-6-23-26-31-8-0
Cost: 407
0-17-44-15-37-12-0
0-18-13-14-0
0-5-30-34-9-38-0
0-11-29-35-36-28-22-0
0-8-31-26-23-6-0
0-27-1-32-46-0
Cost: 407
0-8-31-26-23-6-0
0-11-29-35-36-28-22-0
0-17-44-15-37-12-0
0-27-1-32-46-0
0-18-13-14-0
0-5-30-34-9-38-0
Cost: 407
0-46-32-1-27-0
0-17-44-15-37-12-0
0-22-28-36-35-29-11-0
0-14-13-18-0
0-38-9-34-30-5-0
0-8-31-26-23-6-0
Cost: 407
0-12-37-15-44-17-0
0-18-13-14-0
0-22-28-36-35-29-11-0
0-27-1-32-46-0
0-8-31-26-23-6-0
0-5-30-34-9-38-0
Cost: 407
0-5-30-34-9-38-0
0-27-1-32-46-0
0-8-31-26-23-6-0
0-18-13-14-0
0-22-28-36-35-29-11-0
0-17-44-15-37-12-0
Cost: 407
0-14-13-18-0
0-5-30-34-9-38-0
0-6-23-7-26-31-0
0-46-32-1-27-0
0-22-28-36-35-29-11-0
0-12-37-15-44-17-0
